solution status: optimal solution found
objective value:                     155619.048755103
d11(0,0)                                            1 	(obj:0)
d11(1,1)                                            1 	(obj:0)
d11(2,3)                                            1 	(obj:0)
d11(2,5)                                            1 	(obj:0)
d11(3,7)                                            1 	(obj:0)
d11(3,9)                                            1 	(obj:0)
d11(3,10)                                           1 	(obj:0)
d11(3,11)                                           1 	(obj:0)
d11(3,12)                                           1 	(obj:0)
d11(3,13)                                           1 	(obj:0)
d11(3,14)                                           1 	(obj:0)
d11(4,15)                                           1 	(obj:0)
d11(4,17)                                           1 	(obj:0)
d11(4,19)                                           1 	(obj:0)
d11(4,21)                                           1 	(obj:0)
d11(4,23)                                           1 	(obj:0)
d11(4,25)                                           1 	(obj:0)
d11(4,27)                                           1 	(obj:0)
d11(4,29)                                           1 	(obj:0)
d12(4,16)                                           1 	(obj:0)
d12(4,18)                                           1 	(obj:0)
d12(4,20)                                           1 	(obj:0)
d12(4,22)                                           1 	(obj:0)
d12(4,24)                                           1 	(obj:0)
d12(4,26)                                           1 	(obj:0)
d12(4,28)                                           1 	(obj:0)
d12(4,30)                                           1 	(obj:0)
d21(3,7)                                            1 	(obj:0)
d21(3,8)                                            1 	(obj:0)
d21(3,9)                                            1 	(obj:0)
d21(3,11)                                           1 	(obj:0)
d21(4,15)                                           1 	(obj:0)
d21(4,16)                                           1 	(obj:0)
d21(4,17)                                           1 	(obj:0)
d21(4,18)                                           1 	(obj:0)
d21(4,19)                                           1 	(obj:0)
d21(4,20)                                           1 	(obj:0)
d21(4,23)                                           1 	(obj:0)
d21(4,24)                                           1 	(obj:0)
y2(4,16)                             1079.87872285701 	(obj:0)
y2(4,18)                             1079.87872285701 	(obj:0)
y2(4,20)                             1079.87872285701 	(obj:0)
y2(4,22)                             1079.87872285701 	(obj:0)
y2(4,24)                             1079.87872285701 	(obj:0)
y2(4,26)                             1079.87872285701 	(obj:0)
y2(4,28)                             1079.87872285701 	(obj:0)
y2(4,30)                             1079.87872285701 	(obj:0)
STE(1,1)                             8484.75010111118 	(obj:0)
STE(0,0)                                        11025 	(obj:0)
STE(1,2)                                        10143 	(obj:0)
STE(2,3)                             5944.50020222234 	(obj:0)
STE(2,4)                             7602.75010111118 	(obj:0)
STE(2,5)                             7602.75010111115 	(obj:0)
STE(2,6)                                         9261 	(obj:0)
STE(3,7)                             3404.25030333352 	(obj:0)
STE(3,8)                             5062.50020222234 	(obj:0)
STE(3,9)                             5062.50020222236 	(obj:0)
STE(3,10)                            6720.75010111118 	(obj:0)
STE(3,11)                            5062.50020222234 	(obj:0)
STE(3,12)                            6720.75010111115 	(obj:0)
STE(3,13)                            6720.75010111118 	(obj:0)
STE(3,14)                                        8379 	(obj:0)
STE(4,15)                            2196.00020222234 	(obj:0)
STE(4,16)                            3548.13509004768 	(obj:0)
STE(4,17)                            3854.25010111115 	(obj:0)
STE(4,18)                             5206.3849889365 	(obj:0)
STE(4,19)                            3854.25010111118 	(obj:0)
STE(4,20)                            5206.38498893652 	(obj:0)
STE(4,21)                                      5512.5 	(obj:0)
STE(4,22)                            6864.63488782534 	(obj:0)
STE(4,23)                            3854.25010111115 	(obj:0)
STE(4,24)                             5206.3849889365 	(obj:0)
STE(4,25)                            5512.49999999997 	(obj:0)
STE(4,26)                            6864.63488782531 	(obj:0)
STE(4,27)                                      5512.5 	(obj:0)
STE(4,28)                            6864.63488782534 	(obj:0)
STE(4,29)                            7170.74989888882 	(obj:0)
STE(4,30)                            8522.88478671416 	(obj:0)
y1(3,11)                             1492.42490899994 	(obj:0)
y1(3,13)                             1492.42490899994 	(obj:0)
y1(4,15)                             293.625091000064 	(obj:0)
y1(4,17)                             293.625091000064 	(obj:0)
y1(4,19)                             293.625091000064 	(obj:0)
y1(4,21)                             293.625091000064 	(obj:0)
y1(4,23)                             293.625091000064 	(obj:0)
y1(4,25)                             293.625091000064 	(obj:0)
y1(4,27)                             293.625091000063 	(obj:0)
y1(4,29)                             293.625091000064 	(obj:0)
AVE(1)                               3265.91696791192 	(obj:0)
AVE(2)                               3332.74178563731 	(obj:0)
AVE(3)                               3444.11697932125 	(obj:0)
WB(4)                                426.537732366247 	(obj:0)
AVE(4)                               3399.56511093778 	(obj:0)
WG(1)                                3265.91696791192 	(obj:10)
WG(2)                                3332.74178563731 	(obj:10)
WG(3)                                3444.11697932125 	(obj:10)
WG(4)                                2973.02737857153 	(obj:10)
BG(1)                                930.375531067646 	(obj:10)
BG(2)                                863.550713342281 	(obj:10)
BG(3)                                752.175519658315 	(obj:10)
y1(1,1)                              1492.42490899994 	(obj:0)
y1(2,3)                              1492.42490899996 	(obj:0)
y1(2,5)                              1492.42490899996 	(obj:0)
y1(3,7)                              1492.42490899994 	(obj:0)
y1(3,9)                              1492.42490899994 	(obj:0)
